datasets/50l1i.nl
g3 3 1 0	# problem 50l1i
 416 132 1 0 51	# vars, constraints, objectives, ranges, eqns
 0 1	# nonlinear constraints, objectives
 0 0	# network constraints: nonlinear, linear
 0 99 0	# nonlinear vars in constraints, objectives, both
 0 0 0 1	# linear network variables; functions; arith, flags
 0 317 0 0 99	# discrete variables: binary, integer, nonlinear (b,c,o)
 1646 407	# nonzeros in Jacobian, gradients
 0 0	# max name lengths: constraints, variables
 0 0 0 0 0	# common exprs: b,c,o,c1,o1
b
2 0
2 0
2 0
2 0
2 0
2 0
2 0
2 0
2 0
2 0
2 0
2 0
2 0
2 0
2 0
2 0
2 0
2 0
2 0
2 0
2 0
2 0
2 0
2 0
2 0
2 0
2 0
2 0
2 0
2 0
2 0
2 0
2 0
2 0
2 0
2 0
2 0
2 0
2 0
2 0
2 0
2 0
2 0
2 0
2 0
2 0
2 0
2 0
2 0
2 0
2 0
2 0
2 0
2 0
2 0
2 0
2 0
2 0
2 0
2 0
2 0
2 0
2 0
2 0
2 0
2 0
2 0
2 0
2 0
2 0
2 0
2 0
2 0
2 0
2 0
2 0
2 0
2 0
2 0
2 0
2 0
2 0
2 0
2 0
2 0
2 0
2 0
2 0
2 0
2 0
2 0
2 0
2 0
2 0
2 0
2 0
2 0
2 0
2 0
0 0 20
0 0 20
0 0 20
0 0 20
0 0 20
0 0 20
0 0 20
0 0 20
0 0 20
0 0 20
0 0 20
0 0 30
0 0 30
0 0 30
0 0 30
0 0 30
0 0 30
0 0 30
0 0 30
0 0 30
0 0 30
0 0 30
0 0 40
0 0 40
0 0 40
0 0 38
0 0 40
0 0 40
0 0 40
0 0 40
0 0 40
0 0 33
0 0 40
0 0 40
0 0 40
0 0 40
0 0 38
0 0 40
0 0 40
0 0 40
0 0 40
0 0 40
0 0 33
0 0 40
0 0 20
0 0 20
0 0 20
0 0 20
0 0 20
0 0 20
0 0 20
0 0 20
0 0 20
0 0 20
0 0 20
0 0 50
0 0 44
0 0 45
0 0 38
0 0 43
0 0 48
0 0 42
0 0 45
0 0 48
0 0 33
0 0 50
0 0 20
0 0 20
0 0 20
0 0 20
0 0 20
0 0 20
0 0 20
0 0 20
0 0 20
0 0 20
0 0 20
0 0 50
0 0 44
0 0 45
0 0 38
0 0 43
0 0 48
0 0 42
0 0 45
0 0 48
0 0 33
0 0 50
0 0 30
0 0 30
0 0 30
0 0 30
0 0 30
0 0 30
0 0 30
0 0 30
0 0 30
0 0 30
0 0 30
0 0 53
0 0 44
0 0 45
0 0 38
0 0 43
0 0 48
0 0 42
0 0 45
0 0 48
0 0 33
0 0 94
0 0 53
0 0 53
0 0 48
0 0 44
0 0 43
0 0 41
0 0 53
0 0 53
0 0 53
0 0 44
0 0 44
0 0 44
0 0 44
0 0 43
0 0 41
0 0 44
0 0 44
0 0 44
0 0 45
0 0 45
0 0 45
0 0 44
0 0 43
0 0 41
0 0 45
0 0 45
0 0 45
0 0 38
0 0 38
0 0 38
0 0 38
0 0 38
0 0 38
0 0 38
0 0 38
0 0 38
0 0 43
0 0 43
0 0 43
0 0 43
0 0 43
0 0 41
0 0 43
0 0 43
0 0 43
0 0 48
0 0 48
0 0 48
0 0 44
0 0 43
0 0 41
0 0 48
0 0 48
0 0 48
0 0 42
0 0 42
0 0 42
0 0 42
0 0 42
0 0 41
0 0 42
0 0 42
0 0 42
0 0 45
0 0 45
0 0 45
0 0 44
0 0 43
0 0 41
0 0 45
0 0 45
0 0 45
0 0 48
0 0 48
0 0 48
0 0 44
0 0 43
0 0 41
0 0 48
0 0 48
0 0 48
0 0 33
0 0 33
0 0 33
0 0 33
0 0 33
0 0 33
0 0 33
0 0 33
0 0 33
0 0 54
0 0 70
0 0 48
0 0 44
0 0 43
0 0 41
0 0 64
0 0 63
0 0 94
0 0 50
0 0 40
0 0 50
0 0 42
0 0 42
0 0 53
0 0 50
0 0 35
0 0 45
0 0 41
0 0 54
0 0 50
0 0 40
0 0 50
0 0 42
0 0 42
0 0 53
0 0 50
0 0 35
0 0 45
0 0 41
0 0 70
0 0 48
0 0 40
0 0 48
0 0 42
0 0 42
0 0 48
0 0 48
0 0 35
0 0 45
0 0 41
0 0 48
0 0 44
0 0 40
0 0 44
0 0 42
0 0 42
0 0 44
0 0 44
0 0 35
0 0 44
0 0 41
0 0 44
0 0 43
0 0 40
0 0 43
0 0 42
0 0 42
0 0 43
0 0 43
0 0 35
0 0 43
0 0 41
0 0 43
0 0 41
0 0 40
0 0 41
0 0 41
0 0 41
0 0 41
0 0 41
0 0 35
0 0 41
0 0 41
0 0 41
0 0 50
0 0 40
0 0 50
0 0 42
0 0 42
0 0 53
0 0 50
0 0 35
0 0 45
0 0 41
0 0 64
0 0 50
0 0 40
0 0 50
0 0 42
0 0 42
0 0 53
0 0 50
0 0 35
0 0 45
0 0 41
0 0 63
0 0 50
0 0 40
0 0 50
0 0 42
0 0 42
0 0 53
0 0 50
0 0 35
0 0 45
0 0 41
0 0 105
0 0 70
0 0 20
0 0 50
0 0 40
0 0 10
0 0 60
0 0 40
0 0 60
0 0 100
r
4 20
4 30
4 40
4 40
4 20
4 50
4 20
4 50
4 30
4 100
4 0
4 0
4 0
4 0
4 0
4 0
4 0
4 0
4 0
4 0
4 0
4 0
4 0
4 0
4 0
4 0
4 0
4 0
4 0
4 0
4 0
4 0
4 0
4 0
4 0
4 0
4 0
4 0
4 0
4 0
4 0
4 -70
4 -20
4 -50
4 -40
4 -10
4 -60
4 -40
4 -60
4 -150
4 100
1 53
1 44
1 45
1 38
1 43
1 48
1 42
1 45
1 48
1 33
1 94
1 54
1 70
1 48
1 44
1 43
1 41
1 64
1 63
1 121
1 50
1 40
1 50
1 42
1 42
1 53
1 50
1 35
1 45
1 41
1 105
1 70
1 20
1 50
1 40
1 10
1 60
1 40
1 60
1 150
1 20
1 30
1 40
1 40
1 20
1 50
1 20
1 50
1 30
1 100
1 53
1 44
1 45
1 38
1 43
1 48
1 42
1 45
1 48
1 33
1 94
1 54
1 70
1 48
1 44
1 43
1 41
1 64
1 63
1 121
1 50
1 40
1 50
1 42
1 42
1 53
1 50
1 35
1 45
1 41
1 105
C0
n0
C1
n0
C2
n0
C3
n0
C4
n0
C5
n0
C6
n0
C7
n0
C8
n0
C9
n0
C10
n0
C11
n0
C12
n0
C13
n0
C14
n0
C15
n0
C16
n0
C17
n0
C18
n0
C19
n0
C20
n0
C21
n0
C22
n0
C23
n0
C24
n0
C25
n0
C26
n0
C27
n0
C28
n0
C29
n0
C30
n0
C31
n0
C32
n0
C33
n0
C34
n0
C35
n0
C36
n0
C37
n0
C38
n0
C39
n0
C40
n0
C41
n0
C42
n0
C43
n0
C44
n0
C45
n0
C46
n0
C47
n0
C48
n0
C49
n0
C50
n0
C51
n0
C52
n0
C53
n0
C54
n0
C55
n0
C56
n0
C57
n0
C58
n0
C59
n0
C60
n0
C61
n0
C62
n0
C63
n0
C64
n0
C65
n0
C66
n0
C67
n0
C68
n0
C69
n0
C70
n0
C71
n0
C72
n0
C73
n0
C74
n0
C75
n0
C76
n0
C77
n0
C78
n0
C79
n0
C80
n0
C81
n0
C82
n0
C83
n0
C84
n0
C85
n0
C86
n0
C87
n0
C88
n0
C89
n0
C90
n0
C91
n0
C92
n0
C93
n0
C94
n0
C95
n0
C96
n0
C97
n0
C98
n0
C99
n0
C100
n0
C101
n0
C102
n0
C103
n0
C104
n0
C105
n0
C106
n0
C107
n0
C108
n0
C109
n0
C110
n0
C111
n0
C112
n0
C113
n0
C114
n0
C115
n0
C116
n0
C117
n0
C118
n0
C119
n0
C120
n0
C121
n0
C122
n0
C123
n0
C124
n0
C125
n0
C126
n0
C127
n0
C128
n0
C129
n0
C130
n0
C131
n0
O0 0
o54
9
o2
n10000
o5
o16
o3
o54
11
v0
v9
v18
v27
v36
v45
v54
v63
v72
v81
v90
n-70
n2
o2
n10000
o5
o16
o3
o54
11
v1
v10
v19
v28
v37
v46
v55
v64
v73
v82
v91
n-20
n2
o2
n10000
o5
o16
o3
o54
11
v2
v11
v20
v29
v38
v47
v56
v65
v74
v83
v92
n-50
n2
o2
n10000
o5
o16
o3
o54
11
v3
v12
v21
v30
v39
v48
v57
v66
v75
v84
v93
n-40
n2
o2
n10000
o5
o16
o3
o54
11
v4
v13
v22
v31
v40
v49
v58
v67
v76
v85
v94
n-10
n2
o2
n10000
o5
o16
o3
o54
11
v5
v14
v23
v32
v41
v50
v59
v68
v77
v86
v95
n-60
n2
o2
n10000
o5
o16
o3
o54
11
v6
v15
v24
v33
v42
v51
v60
v69
v78
v87
v96
n-40
n2
o2
n10000
o5
o16
o3
o54
11
v7
v16
v25
v34
v43
v52
v61
v70
v79
v88
v97
n-60
n2
o2
n10000
o5
o16
o3
o54
11
v8
v17
v26
v35
v44
v53
v62
v71
v80
v89
v98
n-150
n2
k415
4
8
12
16
20
24
28
32
36
40
44
48
52
56
60
64
68
72
76
80
84
88
92
96
100
104
108
112
116
120
124
128
132
136
140
144
148
152
156
160
164
168
172
176
180
184
188
192
196
200
204
208
212
216
220
224
228
232
236
240
244
248
252
256
260
264
268
272
276
280
284
288
292
296
300
304
308
312
316
320
324
328
332
336
340
344
348
352
356
360
364
368
372
376
380
384
388
392
396
400
404
408
412
416
420
424
428
432
436
440
444
448
452
456
460
464
468
472
476
480
484
488
492
496
500
504
508
512
516
520
524
528
532
536
540
544
548
552
556
560
564
568
572
576
580
584
588
592
596
600
604
608
612
616
620
624
628
632
636
640
644
648
652
656
660
664
668
672
676
680
684
688
692
696
700
704
708
712
716
720
724
728
732
736
740
744
748
752
756
760
764
768
772
776
780
784
788
792
796
800
804
808
812
816
820
824
828
832
836
840
844
848
852
856
860
864
868
872
876
880
884
888
892
896
900
904
908
912
916
920
924
928
932
936
940
944
948
952
956
960
964
968
972
976
980
984
988
992
996
1000
1004
1008
1012
1016
1020
1024
1028
1032
1036
1040
1044
1048
1052
1056
1060
1064
1068
1072
1076
1080
1084
1088
1092
1096
1100
1104
1108
1112
1116
1120
1124
1128
1132
1136
1140
1144
1148
1152
1156
1160
1164
1168
1172
1176
1180
1184
1188
1192
1196
1200
1204
1208
1212
1216
1220
1224
1228
1232
1236
1240
1244
1248
1252
1256
1260
1264
1268
1272
1276
1280
1284
1288
1292
1296
1300
1304
1308
1312
1316
1320
1324
1328
1332
1336
1340
1344
1348
1352
1356
1360
1364
1368
1372
1376
1380
1384
1388
1392
1396
1400
1404
1408
1412
1416
1420
1424
1428
1432
1436
1440
1444
1448
1452
1456
1460
1464
1468
1472
1476
1480
1484
1488
1492
1496
1500
1504
1508
1512
1516
1520
1524
1528
1532
1536
1540
1544
1548
1552
1556
1560
1564
1568
1572
1576
1580
1584
1588
1592
1596
1600
1604
1608
1612
1616
1620
1624
1628
1630
1632
1634
1636
1638
1640
1642
1644
J0 11
99 1
100 1
101 1
102 1
103 1
104 1
105 1
106 1
107 1
108 1
109 1
J1 11
110 1
111 1
112 1
113 1
114 1
115 1
116 1
117 1
118 1
119 1
120 1
J2 11
121 1
122 1
123 1
124 1
125 1
126 1
127 1
128 1
129 1
130 1
131 1
J3 11
132 1
133 1
134 1
135 1
136 1
137 1
138 1
139 1
140 1
141 1
142 1
J4 11
143 1
144 1
145 1
146 1
147 1
148 1
149 1
150 1
151 1
152 1
153 1
J5 11
154 1
155 1
156 1
157 1
158 1
159 1
160 1
161 1
162 1
163 1
164 1
J6 11
165 1
166 1
167 1
168 1
169 1
170 1
171 1
172 1
173 1
174 1
175 1
J7 11
176 1
177 1
178 1
179 1
180 1
181 1
182 1
183 1
184 1
185 1
186 1
J8 11
187 1
188 1
189 1
190 1
191 1
192 1
193 1
194 1
195 1
196 1
197 1
J9 11
198 1
199 1
200 1
201 1
202 1
203 1
204 1
205 1
206 1
207 1
208 1
J10 19
99 -1
110 -1
121 -1
132 -1
143 -1
154 -1
165 -1
176 -1
187 -1
198 -1
209 1
210 1
211 1
212 1
213 1
214 1
215 1
216 1
217 1
J11 19
100 -1
111 -1
122 -1
133 -1
144 -1
155 -1
166 -1
177 -1
188 -1
199 -1
218 1
219 1
220 1
221 1
222 1
223 1
224 1
225 1
226 1
J12 19
101 -1
112 -1
123 -1
134 -1
145 -1
156 -1
167 -1
178 -1
189 -1
200 -1
227 1
228 1
229 1
230 1
231 1
232 1
233 1
234 1
235 1
J13 19
102 -1
113 -1
124 -1
135 -1
146 -1
157 -1
168 -1
179 -1
190 -1
201 -1
236 1
237 1
238 1
239 1
240 1
241 1
242 1
243 1
244 1
J14 19
103 -1
114 -1
125 -1
136 -1
147 -1
158 -1
169 -1
180 -1
191 -1
202 -1
245 1
246 1
247 1
248 1
249 1
250 1
251 1
252 1
253 1
J15 19
104 -1
115 -1
126 -1
137 -1
148 -1
159 -1
170 -1
181 -1
192 -1
203 -1
254 1
255 1
256 1
257 1
258 1
259 1
260 1
261 1
262 1
J16 19
105 -1
116 -1
127 -1
138 -1
149 -1
160 -1
171 -1
182 -1
193 -1
204 -1
263 1
264 1
265 1
266 1
267 1
268 1
269 1
270 1
271 1
J17 19
106 -1
117 -1
128 -1
139 -1
150 -1
161 -1
172 -1
183 -1
194 -1
205 -1
272 1
273 1
274 1
275 1
276 1
277 1
278 1
279 1
280 1
J18 19
107 -1
118 -1
129 -1
140 -1
151 -1
162 -1
173 -1
184 -1
195 -1
206 -1
281 1
282 1
283 1
284 1
285 1
286 1
287 1
288 1
289 1
J19 19
108 -1
119 -1
130 -1
141 -1
152 -1
163 -1
174 -1
185 -1
196 -1
207 -1
290 1
291 1
292 1
293 1
294 1
295 1
296 1
297 1
298 1
J20 19
109 -1
120 -1
131 -1
142 -1
153 -1
164 -1
175 -1
186 -1
197 -1
208 -1
299 1
300 1
301 1
302 1
303 1
304 1
305 1
306 1
307 1
J21 22
209 -1
218 -1
227 -1
236 -1
245 -1
254 -1
263 -1
272 -1
281 -1
290 -1
299 -1
308 1
309 1
310 1
311 1
312 1
313 1
314 1
315 1
316 1
317 1
318 1
J22 22
210 -1
219 -1
228 -1
237 -1
246 -1
255 -1
264 -1
273 -1
282 -1
291 -1
300 -1
319 1
320 1
321 1
322 1
323 1
324 1
325 1
326 1
327 1
328 1
329 1
J23 22
211 -1
220 -1
229 -1
238 -1
247 -1
256 -1
265 -1
274 -1
283 -1
292 -1
301 -1
330 1
331 1
332 1
333 1
334 1
335 1
336 1
337 1
338 1
339 1
340 1
J24 22
212 -1
221 -1
230 -1
239 -1
248 -1
257 -1
266 -1
275 -1
284 -1
293 -1
302 -1
341 1
342 1
343 1
344 1
345 1
346 1
347 1
348 1
349 1
350 1
351 1
J25 22
213 -1
222 -1
231 -1
240 -1
249 -1
258 -1
267 -1
276 -1
285 -1
294 -1
303 -1
352 1
353 1
354 1
355 1
356 1
357 1
358 1
359 1
360 1
361 1
362 1
J26 22
214 -1
223 -1
232 -1
241 -1
250 -1
259 -1
268 -1
277 -1
286 -1
295 -1
304 -1
363 1
364 1
365 1
366 1
367 1
368 1
369 1
370 1
371 1
372 1
373 1
J27 22
215 -1
224 -1
233 -1
242 -1
251 -1
260 -1
269 -1
278 -1
287 -1
296 -1
305 -1
374 1
375 1
376 1
377 1
378 1
379 1
380 1
381 1
382 1
383 1
384 1
J28 22
216 -1
225 -1
234 -1
243 -1
252 -1
261 -1
270 -1
279 -1
288 -1
297 -1
306 -1
385 1
386 1
387 1
388 1
389 1
390 1
391 1
392 1
393 1
394 1
395 1
J29 22
217 -1
226 -1
235 -1
244 -1
253 -1
262 -1
271 -1
280 -1
289 -1
298 -1
307 -1
396 1
397 1
398 1
399 1
400 1
401 1
402 1
403 1
404 1
405 1
406 1
J30 18
0 1
1 1
2 1
3 1
4 1
5 1
6 1
7 1
8 1
308 -1
319 -1
330 -1
341 -1
352 -1
363 -1
374 -1
385 -1
396 -1
J31 18
9 1
10 1
11 1
12 1
13 1
14 1
15 1
16 1
17 1
309 -1
320 -1
331 -1
342 -1
353 -1
364 -1
375 -1
386 -1
397 -1
J32 18
18 1
19 1
20 1
21 1
22 1
23 1
24 1
25 1
26 1
310 -1
321 -1
332 -1
343 -1
354 -1
365 -1
376 -1
387 -1
398 -1
J33 18
27 1
28 1
29 1
30 1
31 1
32 1
33 1
34 1
35 1
311 -1
322 -1
333 -1
344 -1
355 -1
366 -1
377 -1
388 -1
399 -1
J34 18
36 1
37 1
38 1
39 1
40 1
41 1
42 1
43 1
44 1
312 -1
323 -1
334 -1
345 -1
356 -1
367 -1
378 -1
389 -1
400 -1
J35 18
45 1
46 1
47 1
48 1
49 1
50 1
51 1
52 1
53 1
313 -1
324 -1
335 -1
346 -1
357 -1
368 -1
379 -1
390 -1
401 -1
J36 18
54 1
55 1
56 1
57 1
58 1
59 1
60 1
61 1
62 1
314 -1
325 -1
336 -1
347 -1
358 -1
369 -1
380 -1
391 -1
402 -1
J37 18
63 1
64 1
65 1
66 1
67 1
68 1
69 1
70 1
71 1
315 -1
326 -1
337 -1
348 -1
359 -1
370 -1
381 -1
392 -1
403 -1
J38 18
72 1
73 1
74 1
75 1
76 1
77 1
78 1
79 1
80 1
316 -1
327 -1
338 -1
349 -1
360 -1
371 -1
382 -1
393 -1
404 -1
J39 18
81 1
82 1
83 1
84 1
85 1
86 1
87 1
88 1
89 1
317 -1
328 -1
339 -1
350 -1
361 -1
372 -1
383 -1
394 -1
405 -1
J40 18
90 1
91 1
92 1
93 1
94 1
95 1
96 1
97 1
98 1
318 -1
329 -1
340 -1
351 -1
362 -1
373 -1
384 -1
395 -1
406 -1
J41 12
0 -1
9 -1
18 -1
27 -1
36 -1
45 -1
54 -1
63 -1
72 -1
81 -1
90 -1
407 -1
J42 12
1 -1
10 -1
19 -1
28 -1
37 -1
46 -1
55 -1
64 -1
73 -1
82 -1
91 -1
408 -1
J43 12
2 -1
11 -1
20 -1
29 -1
38 -1
47 -1
56 -1
65 -1
74 -1
83 -1
92 -1
409 -1
J44 12
3 -1
12 -1
21 -1
30 -1
39 -1
48 -1
57 -1
66 -1
75 -1
84 -1
93 -1
410 -1
J45 12
4 -1
13 -1
22 -1
31 -1
40 -1
49 -1
58 -1
67 -1
76 -1
85 -1
94 -1
411 -1
J46 12
5 -1
14 -1
23 -1
32 -1
41 -1
50 -1
59 -1
68 -1
77 -1
86 -1
95 -1
412 -1
J47 12
6 -1
15 -1
24 -1
33 -1
42 -1
51 -1
60 -1
69 -1
78 -1
87 -1
96 -1
413 -1
J48 12
7 -1
16 -1
25 -1
34 -1
43 -1
52 -1
61 -1
70 -1
79 -1
88 -1
97 -1
414 -1
J49 12
8 -1
17 -1
26 -1
35 -1
44 -1
53 -1
62 -1
71 -1
80 -1
89 -1
98 -1
415 -1
J50 9
407 1
408 1
409 1
410 1
411 1
412 1
413 1
414 1
415 1
J51 10
99 1
110 1
121 1
132 1
143 1
154 1
165 1
176 1
187 1
198 1
J52 10
100 1
111 1
122 1
133 1
144 1
155 1
166 1
177 1
188 1
199 1
J53 10
101 1
112 1
123 1
134 1
145 1
156 1
167 1
178 1
189 1
200 1
J54 10
102 1
113 1
124 1
135 1
146 1
157 1
168 1
179 1
190 1
201 1
J55 10
103 1
114 1
125 1
136 1
147 1
158 1
169 1
180 1
191 1
202 1
J56 10
104 1
115 1
126 1
137 1
148 1
159 1
170 1
181 1
192 1
203 1
J57 10
105 1
116 1
127 1
138 1
149 1
160 1
171 1
182 1
193 1
204 1
J58 10
106 1
117 1
128 1
139 1
150 1
161 1
172 1
183 1
194 1
205 1
J59 10
107 1
118 1
129 1
140 1
151 1
162 1
173 1
184 1
195 1
206 1
J60 10
108 1
119 1
130 1
141 1
152 1
163 1
174 1
185 1
196 1
207 1
J61 10
109 1
120 1
131 1
142 1
153 1
164 1
175 1
186 1
197 1
208 1
J62 11
209 1
218 1
227 1
236 1
245 1
254 1
263 1
272 1
281 1
290 1
299 1
J63 11
210 1
219 1
228 1
237 1
246 1
255 1
264 1
273 1
282 1
291 1
300 1
J64 11
211 1
220 1
229 1
238 1
247 1
256 1
265 1
274 1
283 1
292 1
301 1
J65 11
212 1
221 1
230 1
239 1
248 1
257 1
266 1
275 1
284 1
293 1
302 1
J66 11
213 1
222 1
231 1
240 1
249 1
258 1
267 1
276 1
285 1
294 1
303 1
J67 11
214 1
223 1
232 1
241 1
250 1
259 1
268 1
277 1
286 1
295 1
304 1
J68 11
215 1
224 1
233 1
242 1
251 1
260 1
269 1
278 1
287 1
296 1
305 1
J69 11
216 1
225 1
234 1
243 1
252 1
261 1
270 1
279 1
288 1
297 1
306 1
J70 11
217 1
226 1
235 1
244 1
253 1
262 1
271 1
280 1
289 1
298 1
307 1
J71 9
308 1
319 1
330 1
341 1
352 1
363 1
374 1
385 1
396 1
J72 9
309 1
320 1
331 1
342 1
353 1
364 1
375 1
386 1
397 1
J73 9
310 1
321 1
332 1
343 1
354 1
365 1
376 1
387 1
398 1
J74 9
311 1
322 1
333 1
344 1
355 1
366 1
377 1
388 1
399 1
J75 9
312 1
323 1
334 1
345 1
356 1
367 1
378 1
389 1
400 1
J76 9
313 1
324 1
335 1
346 1
357 1
368 1
379 1
390 1
401 1
J77 9
314 1
325 1
336 1
347 1
358 1
369 1
380 1
391 1
402 1
J78 9
315 1
326 1
337 1
348 1
359 1
370 1
381 1
392 1
403 1
J79 9
316 1
327 1
338 1
349 1
360 1
371 1
382 1
393 1
404 1
J80 9
317 1
328 1
339 1
350 1
361 1
372 1
383 1
394 1
405 1
J81 9
318 1
329 1
340 1
351 1
362 1
373 1
384 1
395 1
406 1
J82 11
0 1
9 1
18 1
27 1
36 1
45 1
54 1
63 1
72 1
81 1
90 1
J83 11
1 1
10 1
19 1
28 1
37 1
46 1
55 1
64 1
73 1
82 1
91 1
J84 11
2 1
11 1
20 1
29 1
38 1
47 1
56 1
65 1
74 1
83 1
92 1
J85 11
3 1
12 1
21 1
30 1
39 1
48 1
57 1
66 1
75 1
84 1
93 1
J86 11
4 1
13 1
22 1
31 1
40 1
49 1
58 1
67 1
76 1
85 1
94 1
J87 11
5 1
14 1
23 1
32 1
41 1
50 1
59 1
68 1
77 1
86 1
95 1
J88 11
6 1
15 1
24 1
33 1
42 1
51 1
60 1
69 1
78 1
87 1
96 1
J89 11
7 1
16 1
25 1
34 1
43 1
52 1
61 1
70 1
79 1
88 1
97 1
J90 11
8 1
17 1
26 1
35 1
44 1
53 1
62 1
71 1
80 1
89 1
98 1
J91 11
99 1
100 1
101 1
102 1
103 1
104 1
105 1
106 1
107 1
108 1
109 1
J92 11
110 1
111 1
112 1
113 1
114 1
115 1
116 1
117 1
118 1
119 1
120 1
J93 11
121 1
122 1
123 1
124 1
125 1
126 1
127 1
128 1
129 1
130 1
131 1
J94 11
132 1
133 1
134 1
135 1
136 1
137 1
138 1
139 1
140 1
141 1
142 1
J95 11
143 1
144 1
145 1
146 1
147 1
148 1
149 1
150 1
151 1
152 1
153 1
J96 11
154 1
155 1
156 1
157 1
158 1
159 1
160 1
161 1
162 1
163 1
164 1
J97 11
165 1
166 1
167 1
168 1
169 1
170 1
171 1
172 1
173 1
174 1
175 1
J98 11
176 1
177 1
178 1
179 1
180 1
181 1
182 1
183 1
184 1
185 1
186 1
J99 11
187 1
188 1
189 1
190 1
191 1
192 1
193 1
194 1
195 1
196 1
197 1
J100 11
198 1
199 1
200 1
201 1
202 1
203 1
204 1
205 1
206 1
207 1
208 1
J101 9
209 1
210 1
211 1
212 1
213 1
214 1
215 1
216 1
217 1
J102 9
218 1
219 1
220 1
221 1
222 1
223 1
224 1
225 1
226 1
J103 9
227 1
228 1
229 1
230 1
231 1
232 1
233 1
234 1
235 1
J104 9
236 1
237 1
238 1
239 1
240 1
241 1
242 1
243 1
244 1
J105 9
245 1
246 1
247 1
248 1
249 1
250 1
251 1
252 1
253 1
J106 9
254 1
255 1
256 1
257 1
258 1
259 1
260 1
261 1
262 1
J107 9
263 1
264 1
265 1
266 1
267 1
268 1
269 1
270 1
271 1
J108 9
272 1
273 1
274 1
275 1
276 1
277 1
278 1
279 1
280 1
J109 9
281 1
282 1
283 1
284 1
285 1
286 1
287 1
288 1
289 1
J110 9
290 1
291 1
292 1
293 1
294 1
295 1
296 1
297 1
298 1
J111 9
299 1
300 1
301 1
302 1
303 1
304 1
305 1
306 1
307 1
J112 11
308 1
309 1
310 1
311 1
312 1
313 1
314 1
315 1
316 1
317 1
318 1
J113 11
319 1
320 1
321 1
322 1
323 1
324 1
325 1
326 1
327 1
328 1
329 1
J114 11
330 1
331 1
332 1
333 1
334 1
335 1
336 1
337 1
338 1
339 1
340 1
J115 11
341 1
342 1
343 1
344 1
345 1
346 1
347 1
348 1
349 1
350 1
351 1
J116 11
352 1
353 1
354 1
355 1
356 1
357 1
358 1
359 1
360 1
361 1
362 1
J117 11
363 1
364 1
365 1
366 1
367 1
368 1
369 1
370 1
371 1
372 1
373 1
J118 11
374 1
375 1
376 1
377 1
378 1
379 1
380 1
381 1
382 1
383 1
384 1
J119 11
385 1
386 1
387 1
388 1
389 1
390 1
391 1
392 1
393 1
394 1
395 1
J120 11
396 1
397 1
398 1
399 1
400 1
401 1
402 1
403 1
404 1
405 1
406 1
J121 9
0 1
1 1
2 1
3 1
4 1
5 1
6 1
7 1
8 1
J122 9
9 1
10 1
11 1
12 1
13 1
14 1
15 1
16 1
17 1
J123 9
18 1
19 1
20 1
21 1
22 1
23 1
24 1
25 1
26 1
J124 9
27 1
28 1
29 1
30 1
31 1
32 1
33 1
34 1
35 1
J125 9
36 1
37 1
38 1
39 1
40 1
41 1
42 1
43 1
44 1
J126 9
45 1
46 1
47 1
48 1
49 1
50 1
51 1
52 1
53 1
J127 9
54 1
55 1
56 1
57 1
58 1
59 1
60 1
61 1
62 1
J128 9
63 1
64 1
65 1
66 1
67 1
68 1
69 1
70 1
71 1
J129 9
72 1
73 1
74 1
75 1
76 1
77 1
78 1
79 1
80 1
J130 9
81 1
82 1
83 1
84 1
85 1
86 1
87 1
88 1
89 1
J131 9
90 1
91 1
92 1
93 1
94 1
95 1
96 1
97 1
98 1
G0 407
0 135
1 784
2 119
3 420
4 875
5 611
6 499
7 753
8 982
9 570
10 242
11 191
12 453
13 933
14 899
15 826
16 953
17 150
18 764
19 797
20 674
21 289
22 224
23 249
24 413
25 669
26 441
27 404
28 791
29 781
30 937
31 882
32 153
33 543
34 712
35 363
36 152
37 671
38 719
39 104
40 202
41 295
42 873
43 976
44 983
45 449
46 146
47 966
48 922
49 919
50 755
51 368
52 469
53 735
54 205
55 769
56 758
57 756
58 219
59 930
60 886
61 703
62 157
63 445
64 840
65 573
66 216
67 929
68 890
69 226
70 492
71 740
72 157
73 733
74 612
75 850
76 901
77 195
78 737
79 217
80 659
81 700
82 587
83 336
84 984
85 996
86 371
87 288
88 803
89 546
90 680
91 889
92 960
93 346
94 175
95 253
96 755
97 534
98 185
99 560
100 790
101 674
102 963
103 842
104 340
105 663
106 195
107 999
108 833
109 584
110 506
111 330
112 848
113 754
114 270
115 640
116 135
117 624
118 259
119 938
120 798
121 342
122 185
123 895
124 677
125 781
126 656
127 673
128 745
129 895
130 127
131 719
132 655
133 439
134 897
135 430
136 739
137 605
138 447
139 572
140 330
141 289
142 324
143 484
144 476
145 382
146 732
147 727
148 844
149 358
150 458
151 809
152 555
153 510
154 748
155 417
156 776
157 324
158 918
159 333
160 783
161 763
162 926
163 473
164 771
165 707
166 571
167 332
168 791
169 212
170 929
171 596
172 541
173 663
174 367
175 609
176 906
177 485
178 486
179 212
180 712
181 724
182 180
183 798
184 212
185 101
186 741
187 319
188 665
189 954
190 835
191 324
192 484
193 502
194 737
195 229
196 152
197 783
198 829
199 771
200 809
201 515
202 346
203 935
204 538
205 302
206 283
207 222
208 500
209 866
210 393
211 379
212 936
213 983
214 709
215 297
216 610
217 851
218 243
219 708
220 300
221 223
222 286
223 425
224 563
225 448
226 870
227 759
228 863
229 502
230 445
231 610
232 246
233 247
234 963
235 810
236 919
237 588
238 739
239 650
240 437
241 971
242 740
243 878
244 572
245 250
246 514
247 397
248 710
249 362
250 863
251 243
252 445
253 723
254 671
255 980
256 101
257 996
258 403
259 353
260 751
261 552
262 136
263 259
264 108
265 332
266 198
267 758
268 915
269 307
270 230
271 503
272 251
273 153
274 219
275 772
276 727
277 686
278 724
279 519
280 521
281 203
282 951
283 353
284 326
285 211
286 609
287 572
288 198
289 252
290 960
291 995
292 977
293 437
294 805
295 921
296 262
297 819
298 780
299 260
300 679
301 900
302 497
303 376
304 915
305 603
306 995
307 491
308 234
309 294
310 500
311 739
312 132
313 787
314 559
315 982
316 569
317 474
318 121
319 849
320 769
321 137
322 329
323 464
324 662
325 537
326 875
327 382
328 126
329 325
330 376
331 897
332 708
333 383
334 978
335 580
336 552
337 928
338 915
339 758
340 615
341 646
342 291
343 148
344 611
345 116
346 271
347 319
348 257
349 576
350 145
351 472
352 617
353 198
354 991
355 844
356 136
357 379
358 448
359 596
360 401
361 280
362 706
363 198
364 799
365 215
366 290
367 352
368 260
369 355
370 422
371 227
372 117
373 892
374 834
375 665
376 669
377 422
378 971
379 785
380 891
381 725
382 387
383 953
384 762
385 738
386 254
387 589
388 485
389 884
390 203
391 492
392 910
393 345
394 275
395 138
396 576
397 781
398 858
399 637
400 966
401 917
402 507
403 624
404 927
405 605
406 924
