datasets/50l1i.sol
 
couenne: Optimal

Options
3
3
1
0
132
0
416
416
16
0
34
0
0
0
0
0
0
0
0
0
0
0
0
0
0
40
0
0
0
18.000000000000004
2
24.999999999999996
0
0
0
0
0
0
0
0
35
0
0
0
36.000000001006114
0
0
5.999999998993886
0
0
0
0
0
0
8.000000000000002
0
0
0
0
0
0
0
0
0
0
0
0
0
0
0
5
0
0
0
0
0
0
0
0
0
9.999999998993884
0
0
0
0
0
0
35.000000001006114
0
0
0
0
0
0
0
25
0
0
0
0
0
0
0
0
0
0
105
0
0
0
0
0
0
0
20
0
0
0
0
1.9999999999999996
0
0
0
0
28
0
0
0
0
0
40
0
0
0
0
0
0
0
0
0
0
0
0
0
0
0
0
0
0
0
40
0
0
20
0
0
0
0
0
0
0
0
0
2
0
0
0
48
0
0
0
0
0
0
0
20
0
0
0
0
0
0
0
0
0
0
0
17.00000000000001
0
0
14.000000000000005
0
0
18.999999999999986
0
0
0
0
0
0
0
0
0
15.999999999999984
14.00000000000001
0
0
0
0
0
42.99999999999999
0
0
25
32.00000000000001
0
0
0
0
0
0
0
0
0
0
0
0
0
0
44
0
0
0
0
0
0
0
0
0
0
40
0
0
0
0
0
0
0
17.000000000000007
0
0
0
0
13.999999999999986
0
0
0
23.999999999999996
0
5.000000000000009
0
0
0
0
47.999999999999986
0
0
0
0
0
0
0
25
0
0
0
0
0
17.000000000000007
0
0
45
0
0
0
0
0
0
0
0
0
0
0
1.9999999999999913
0
0
45.99999999999999
0
0
0
0
0
0
0
33
0
0
40.00000000000001
0
0
0
0
0
0
0
0
4
0
0
0
0
0
0
0
0
0
50
0
0
45
0
0
0
0
0
0
25
0
13
0
0
34.99999999999999
0
0
0
0
0
0
0
0
0
0
0
39
0
5.000000000000008
0
0
0
0
0
40
0
0
3.000000000000001
0
0
0
0
0
0
33
0
0
0
0
0
0
0
6.999999999999999
0
0
0
0
0
0
0
0
0
0
38
0
0
0
0
0
0
0
8.000000000000002
0
0
0
0
54.99999999999999
0
0
0
0
0
0
0
0
0
0
0
8
12
16.000000000000004
16.00000000100611
8
0
15
24.999999998993886
0
objno 0 3
